tmp/__mpc.lp
NAME        MobileSCADA Model 2024-08-10 21:59:08                       
ROWS
 N  R0          
 E  R1          
 E  R2          
 E  R3          
 E  R4          
 G  R5          
 L  R6          
 G  R7          
 L  R8          
 E  R9          
 E  R10         
 E  R11         
 G  R12         
 L  R13         
 G  R14         
 L  R15         
COLUMNS
    C0        R0        1.0000000000   R1        1.0000000000
    C1        R1        1.0000000000   R5        1.0000000000
    C1        R6        1.0000000000   R7        1.0000000000
    C1        R8        1.0000000000
    C2        R1        1.0000000000   R12       1.0000000000
    C2        R13       1.0000000000   R14       1.0000000000
    C2        R15       1.0000000000
    C3        R2        1.0000000000   R5        -1.000000000
    C3        R6        -1.000000000
    C4        R3        1.0000000000   R7        -1.000000000
    C4        R8        -1.000000000
    C5        R4        1.0000000000   R5        1000000.0000
    C5        R8        -1000000.000
    C6        R4        1.0000000000   R6        -1000000.000
    C6        R7        1000000.0000
    C7        R9        1.0000000000   R12       -1.000000000
    C7        R13       -1.000000000
    C8        R10       1.0000000000   R14       -1.000000000
    C8        R15       -1.000000000
    C9        R11       1.0000000000   R12       1000000.0000
    C9        R15       -1000000.000
    C10       R11       1.0000000000   R13       -1000000.000
    C10       R14       1000000.0000
RHS
    RHS       R1        100.00000000   R2        10.000000000
    RHS       R3        30.000000000   R4        1.0000000000
    RHS       R5        0.0000000000   R6        0.0000000000
    RHS       R7        0.0000000000   R8        0.0000000000
    RHS       R9        30.000000000   R10       10.000000000
    RHS       R11       1.0000000000   R12       0.0000000000
    RHS       R13       0.0000000000   R14       0.0000000000
    RHS       R15       0.0000000000
BOUNDS
 BV BOUND     C5                    
 BV BOUND     C6                    
 BV BOUND     C9                    
 BV BOUND     C10                   
ENDATA
