tmp/__mpc.param
time_limit 30
